(declare-const tmp Int)
(declare-const term_to_project_onto0 Real)
(declare-const term_to_project_onto1 Real)
(declare-const term_to_project_onto2 Real)
(declare-const term_to_project_onto Real)
(declare-const term_to_project_onto3 Real)
(assert (exists
         ((|tmp'?1| Int) (|k'?2| Int) (|z'?3| Int) (|y'?4| Int) (|x'?5| Int)
            (phi_x?6 Int) (rem?7 Int) (havoc?8 Int) (z?9 Int) (k?10 Int)
            (x?11 Int) (y?12 Int))
         (and (<= (- z?9) 0) (<= (- k?10) 0) (<= (- x?11) 0) (<= (- y?12) 0)
                (= (+ y?12 x?11 (- k?10) z?9) 0) (<= (+ y?12 -100000) 0)
                (or (<= (+ havoc?8 1) 0) (<= (+ (- havoc?8) 1) 0))
                (or (and (or (<= k?10 0)
                               (and (<= (- rem?7) 0)
                                      (or (<= (+ rem?7 1) 0)
                                            (<= (+ (- rem?7) 1) 0))
                                      (or (<= (+ rem?7 -2) 0)
                                            (<= (+ rem?7 2) 0))
                                      (is_int (/ (+ k?10 (- rem?7)) 3))))
                           (= (+ (- phi_x?6) x?11) 0))
                      (and (is_int (/ k?10 3)) (<= (- k?10) 0)
                             (= (+ (- phi_x?6) x?11 1) 0)))
                (= (+ |tmp'?1| (- havoc?8)) 0)
                (= (+ |k'?2| (- phi_x?6) (- y?12) (- z?9) -2) 0)
                (= (+ |z'?3| (- z?9) -1) 0) (= (+ |y'?4| (- y?12) -1) 0)
                (= (+ |x'?5| (- phi_x?6)) 0)
                (= term_to_project_onto3 (+ |x'?5| (- x?11)))
                (= term_to_project_onto2 (+ |y'?4| (- y?12)))
                (= term_to_project_onto1 (+ |z'?3| (- z?9)))
                (= term_to_project_onto0 (+ |k'?2| (- k?10)))
                (= term_to_project_onto (+ |tmp'?1| (- tmp))))))
(check-sat)
